<number of tasks>
100

<cycle time>
1000

<order strength>
0.595


<task times>
1 88
2 452
3 64
4 154
5 187
6 80
7 369
8 42
9 66
10 92
11 88
12 105
13 455
14 109
15 174
16 236
17 577
18 119
19 88
20 304
21 55
22 143
23 209
24 260
25 247
26 402
27 166
28 82
29 149
30 65
31 105
32 138
33 267
34 346
35 234
36 243
37 150
38 431
39 172
40 532
41 479
42 321
43 161
44 53
45 184
46 271
47 554
48 22
49 70
50 496
51 205
52 324
53 130
54 150
55 144
56 172
57 386
58 86
59 104
60 159
61 35
62 223
63 53
64 267
65 102
66 395
67 364
68 449
69 82
70 121
71 304
72 128
73 153
74 26
75 124
76 96
77 92
78 127
79 43
80 69
81 469
82 344
83 72
84 165
85 167
86 107
87 539
88 187
89 142
90 246
91 138
92 55
93 31
94 97
95 149
96 351
97 251
98 285
99 445
100 127

<precedence relations>
1,8
1,9
1,10
1,11
2,6
2,8
3,7
3,8
4,11
5,6
5,10
5,11
6,12
6,13
6,14
7,13
8,37
8,66
9,13
9,14
10,13
10,14
11,13
12,16
13,15
13,17
13,19
13,20
13,21
14,18
14,20
14,27
14,30
14,33
15,22
16,24
17,23
18,26
19,25
19,27
19,30
20,29
21,27
21,28
22,33
23,33
24,31
25,32
26,34
27,51
28,33
29,34
30,34
30,38
31,35
32,36
33,37
33,38
34,36
34,37
35,39
36,40
36,41
36,42
36,43
36,57
37,74
37,78
38,41
38,42
38,43
38,57
39,45
40,44
40,61
40,66
41,46
41,47
41,67
42,47
43,47
44,48
45,49
46,50
46,51
47,51
47,52
47,53
47,56
48,56
49,57
50,55
51,54
51,59
51,60
51,61
52,60
52,66
53,58
53,73
53,87
54,63
55,65
56,79
57,66
57,67
57,78
57,87
58,62
58,68
58,78
58,80
59,64
59,68
60,86
62,71
63,70
64,72
65,73
66,69
66,74
68,74
69,75
70,76
71,77
72,78
73,80
74,79
74,81
74,94
75,86
76,87
77,85
78,82
78,83
78,84
78,86
78,94
79,95
80,88
80,89
81,89
82,91
83,92
84,93
85,94
86,95
88,90
88,100
90,96
91,97
92,97
93,98
94,97
94,98
95,99
95,100

<end>
